c description: Random 3-CNF over 21 variables and 89 clauses
c generator: CNFgen (0.9.2)
c copyright: (C) 2012-2022 Massimo Lauria <massimo.lauria@uniroma1.it>
c url: https://massimolauria.net/cnfgen
c command line: cnfgen --output CNF_4.28/21_bit_89_526.cnf randkcnf 3 21 89
c
p cnf 21 89
-4 -5 21 0
-1 6 7 0
-6 -14 15 0
1 -19 21 0
5 -10 12 0
-9 15 -16 0
-7 -9 -15 0
7 15 18 0
2 6 -15 0
3 -9 16 0
-5 -9 15 0
3 10 19 0
-1 2 -3 0
-15 -16 -21 0
6 -8 10 0
6 12 15 0
3 17 -21 0
1 11 21 0
-5 9 16 0
1 7 16 0
3 -5 -21 0
13 18 19 0
2 -8 -12 0
-6 -14 17 0
2 9 -20 0
18 -20 -21 0
7 9 16 0
2 -10 17 0
3 -11 -12 0
3 10 -21 0
-1 -10 -15 0
8 10 15 0
-11 -12 15 0
3 -10 18 0
-1 -5 -7 0
-13 -14 -15 0
1 13 -20 0
-7 -8 18 0
5 -11 21 0
-8 14 -15 0
8 -15 -17 0
-4 8 -21 0
-1 -15 -18 0
-8 13 17 0
-1 10 18 0
1 -8 15 0
-3 8 20 0
-2 16 -18 0
-8 -10 -15 0
-3 15 -20 0
-10 15 21 0
-8 13 -20 0
3 -13 -16 0
-2 -8 19 0
10 12 20 0
2 14 -15 0
-2 -5 21 0
5 16 -21 0
-5 -14 -15 0
-7 10 -11 0
9 16 21 0
-5 10 18 0
7 18 20 0
2 5 16 0
-3 9 -18 0
9 -12 17 0
-8 -11 -20 0
8 9 -18 0
-3 -5 -10 0
2 10 -18 0
-3 -12 -20 0
-8 -11 16 0
5 16 -19 0
4 -12 13 0
-6 15 21 0
-6 -13 -20 0
-2 -13 -16 0
-3 18 -21 0
2 8 17 0
5 9 -18 0
-2 11 -17 0
12 -13 -19 0
-12 -13 -17 0
2 13 -15 0
-13 14 -20 0
-4 9 13 0
-2 -12 14 0
4 11 -19 0
-4 -5 16 0
